3 10
247 281 214 
0 69 59 87 77 106 96 79 77 63 98 100 14 1
1 63 53 48 38 24 14 16 29 56 56 100 10 2
2 89 79 24 14 58 48 63 16 13 85 98 64 3
3 64 54 80 70 89 79 63 15 95 43 36 90 3
4 31 21 102 92 72 62 92 81 47 94 12 28 2
5 109 99 18 8 18 8 64 57 19 77 10 26 2
6 12 2 59 49 13 3 59 33 23 34 77 18 2
7 69 59 46 36 30 20 64 75 5 85 81 89 1
8 61 51 104 94 54 44 93 49 1 20 2 28 1
9 27 17 95 85 64 54 92 21 51 92 83 100 1
